log NVT/testing_rc/T_1.70__v_5.83__rc_2.500000/settings.log
boundary p p p
units lj
atom_style atomic
read_data NVT/testing_rc/T_1.70__v_5.83__rc_2.500000/lattice.data

mass 1 1.000000
pair_style lj/cut 2.500000 
pair_coeff 1 1 1.0 1.0

velocity all create 1.700000 66855 mom yes rot yes dist gaussian

neighbor 0.300000 bin
neigh_modify every 20 delay 0 check no

timestep 0.004000

fix 1 all nvt temp 1.700000 1.700000 0.800000

dump dumpeq all dcd 1000 NVT/testing_rc/T_1.70__v_5.83__rc_2.500000/trajectory.dcd

thermo 100 
thermo_style custom step temp press etotal pe 

log NVT/testing_rc/T_1.70__v_5.83__rc_2.500000/results.log
run 200000

write_restart NVT/testing_rc/T_1.70__v_5.83__rc_2.500000/end1.restart