log NVT/testing/T_2.70__v_4.10/settings.log
boundary p p p
units lj
atom_style atomic
read_data NVT/testing/T_2.70__v_4.10/lattice.data

mass 1 1.000000
pair_style lj/cut 2.500000 
pair_modify shift yes 
pair_coeff 1 1 1.0 1.0

velocity all create 2.700000 80473 mom yes rot yes 

neighbor 0.300000 bin
neigh_modify every 20 delay 0 check no

timestep 0.004000

fix 1 all nvt temp 2.700000 2.700000 0.400000

dump dumpeq all dcd 1000 NVT/testing/T_2.70__v_4.10/trajectory.dcd

thermo 10 
thermo_style custom step temp press etotal pe 

log NVT/testing/T_2.70__v_4.10/results.log
run 50000

write_restart NVT/testing/T_2.70__v_4.10/end1.restart